[97mSOLVER - Computes the weighted upper irredundant/domination number.
Made in 2018-2020 by Daniel Severin.
[37m[33mStatistics:
  |V| = 25, |E| = 160 (density = 53.3333%).
  Initial bounds:  LB = 0, UB = 25.
Diameter of G: 2
[37m[97mClassic UB = w(V) - min { w(N[v] - {u}) : v in V, u in N[v] } = 13
[37mNew bounds:  LB = 5, UB = 9.
[31mSolution (card = 5, weight = 5):
  private of 0 is 20
  private of 3 is 23
  private of 6 is 16
  private of 9 is 17
  private of 14 is 22
[37m[96mTime elapsed for heuristic = 0 sec.
[37m[35m
Complement of the transformed graph:
  |V| = 345, |E| = 12460 (density = 20.9976%).
[37m[97mModel has 625 variables and 600 constraints.
[37mTried aggregator 1 time.
MIP Presolve eliminated 19 rows and 0 columns.
MIP Presolve modified 206 coefficients.
Reduced MIP has 581 rows, 345 columns, and 17230 nonzeros.
Reduced MIP has 345 binaries, 0 generals, 0 SOSs, and 0 indicators.
Presolve time = 0.04 sec. (49.82 ticks)
Tried aggregator 1 time.
Reduced MIP has 581 rows, 345 columns, and 17230 nonzeros.
Reduced MIP has 345 binaries, 0 generals, 0 SOSs, and 0 indicators.
Presolve time = 0.01 sec. (15.57 ticks)
Clique table members: 581.
MIP emphasis: balance optimality and feasibility.
MIP search method: dynamic search.
Parallel mode: none, using 1 thread.
Root relaxation solution time = 0.01 sec. (15.52 ticks)

        Nodes                                         Cuts/
   Node  Left     Objective  IInf  Best Integer    Best Bound    ItCnt     Gap

      0     0       11.6071   102                     11.6071      374         
      0     0        9.1475    96                   Cuts: 152      934         
      0     0        8.2412   108                 Cliques: 95     1281         
      0     0        8.0105   130                 Cliques: 88     1521         
      0     0        7.8757   145                 Cliques: 80     1770         
      0     0        7.7905   146                    Cuts: 62     1978         
      0     0        7.7101   160                    Cuts: 64     2225         
      0     0        7.6654   158                 Cliques: 48     2377         
      0     0        7.6327   160                 Cliques: 40     2515         
      0     0        7.6041   166                 Cliques: 25     2658         
      0     0        7.5698   172                 Cliques: 32     2811         
      0     0        7.5493   178                 Cliques: 25     2952         
      0     0        7.5317   184                 Cliques: 35     3072         
      0     0        7.5155   181                 Cliques: 14     3196         
      0     0        7.5030   184                 Cliques: 20     3310         
      0     0        7.4846   189                 Cliques: 18     3461         
      0     0        7.4726   181                 Cliques: 17     3578         
      0     0        7.4614   186                 Cliques: 16     3684         
      0     0        7.4452   187                 Cliques: 15     3830         
      0     0        7.4301   185                 Cliques: 15     3956         
      0     0        7.4206   185                 Cliques: 12     4046         
      0     0        7.4143   187                  Cliques: 9     4144         
      0     0        7.4012   183                 Cliques: 18     4278         
      0     0        7.3971   185                  Cliques: 7     4360         
      0     0        7.3913   185                  Cliques: 7     4435         
      0     0        7.3844   182                 Cliques: 13     4516         
      0     0        7.3781   182                 Cliques: 10     4587         
      0     0        7.3737   189                  Cliques: 8     4638         
      0     0        7.3639   187                  Cliques: 9     4721         
      0     0        7.3576   190                 Cliques: 13     4818         
      0     0        7.3461   187                 Cliques: 16     4963         
      0     0        7.3445   182                  Cliques: 5     5009         
      0     0        7.3418   187                  Cliques: 6     5062         
      0     0        7.3370   186                  Cliques: 4     5131         
      0     0        7.3321   182                 Cliques: 11     5198         
      0     0        7.3289   186                 Cliques: 14     5270         
      0     0        7.3224   192                     Cuts: 9     5362         
      0     0        7.3193   193                 Cliques: 11     5430         
      0     0        7.3141   189                  Cliques: 5     5516         
      0     2        7.3141   189                      7.3141     5516         
Elapsed time = 1.15 sec. (1638.90 ticks, tree = 0.01 MB, solutions = 0)
      8     6        7.2897   184                      7.3076     7452         
     15    11        7.2488   174                      7.3076     9402         
     22    12        cutoff                            7.3076    11240         
     34    20        7.1936   165                      7.3076    13589         
     48    26        7.1302   146                      7.3076    15794         
     64    32        cutoff                            7.3076    18327         
     88    42        6.9828   147                      7.3076    20573         
    115    51        cutoff                            7.3076    23046         
    155    61        cutoff                            7.3076    25668         
    244    46        cutoff                            6.9827    34581         
Elapsed time = 3.01 sec. (4812.04 ticks, tree = 0.34 MB, solutions = 0)

Clique cuts applied:  164

Root node processing (before b&c):
  Real time             =    1.14 sec. (1633.28 ticks)
Sequential b&c:
  Real time             =    2.04 sec. (3476.14 ticks)
                          ------------
Total (root+branch&cut) =    3.18 sec. (5109.42 ticks)
Number of nodes evaluated: 297
[92mInfeasible. Therefore, the solution given by the heuristic is optimal!
[37m[31mSolution (card = 5, weight = 5):
  private of 0 is 20
  private of 3 is 23
  private of 6 is 16
  private of 9 is 17
  private of 14 is 22
[37m[96mTime elapsed during optimization = 3.16 sec.
[37mCoq certificate written in certificate.v
Reading graph from output.dimacs...OK
Searching for a single maximum size clique...
  2/345 (max  1)  0.00 s  (0.00 s/round)
 50/345 (max  2)  0.00 s  (0.00 s/round)
102/345 (max  3)  0.00 s  (0.00 s/round)
134/345 (max  4)  0.00 s  (0.00 s/round)
212/345 (max  5)  0.00 s  (0.00 s/round)
345/345 (max  5)  0.00 s  (0.00 s/round)
